Data path: /scratch/opt/lxu/CFLG/benchmarks/random_B
Instance: r_25_0.1_36.txt
Result path: /scratch/opt/lxu/CFLG/results/random_B
Solver: Gurobi
Time limit: 3600
Formulation: LEVFP
Cover: Small
julia --project=. src/main.jl /scratch/opt/lxu/CFLG/benchmarks/random_B r_25_0.1_36.txt /scratch/opt/lxu/CFLG/results/random_B Gurobi 3600 LEVFP Small
/scratch/opt/lxu/CFLG/benchmarks/random_B Gurobi 3600.0 /scratch/opt/lxu/CFLG/results/random_B r_25_0.1_36.txt LEVFP Small
/scratch/opt/lxu/CFLG/benchmarks/random_B/r_25_0.1_36.txt

 read graph
data loaded


after absorb:20 25

max_piece:4
problem_graph/original graph: node: 36/25 edge: 47/36 dlt: 0.7261128803527909 break_avg_len: 0.556171567929797 break_max_len: 1.8121641470128105elapsed CPU time: 0.042056 seconds
Set parameter TokenServer to value "solice01.zib.de"
Set parameter Threads to value 1
Set parameter OutputFlag to value 1
Set parameter MIPGap to value 0.0001
Set parameter MIPGapAbs to value 1
Set parameter TimeLimit to value 3599.957944

 model loaded

Gurobi Optimizer version 12.0.1 build v12.0.1rc0 (linux64 - "Debian GNU/Linux 12 (bookworm)")

CPU model: Intel(R) Xeon(R) Gold 5222 CPU @ 3.80GHz, instruction set [SSE2|AVX|AVX2|AVX512]
Thread count: 8 physical cores, 16 logical processors, using up to 1 threads

Non-default parameters:
TimeLimit  3599.957944
MIPGapAbs  1
Threads  1

Optimize a model with 1680 rows, 780 columns and 4509 nonzeros
Model fingerprint: 0x127f2184
Variable types: 83 continuous, 697 integer (697 binary)
Coefficient statistics:
  Matrix range     [2e-06, 2e+00]
  Objective range  [1e+00, 1e+00]
  Bounds range     [1e-02, 1e+00]
  RHS range        [1e-02, 5e+00]
Presolve removed 546 rows and 85 columns
Presolve time: 0.05s
Presolved: 1134 rows, 695 columns, 6247 nonzeros
Variable types: 82 continuous, 613 integer (613 binary)
Found heuristic solution: objective 36.0000000
Found heuristic solution: objective 30.0000000
Found heuristic solution: objective 29.0000000

Root relaxation: objective 7.931311e+00, 787 iterations, 0.02 seconds (0.02 work units)

    Nodes    |    Current Node    |     Objective Bounds      |     Work
 Expl Unexpl |  Obj  Depth IntInf | Incumbent    BestBd   Gap | It/Node Time

     0     0    7.93131    0  177   29.00000    7.93131  72.7%     -    0s
H    0     0                      22.0000000    7.93131  63.9%     -    0s
H    0     0                      17.0000000    7.93131  53.3%     -    0s
     0     0    9.00000    0  143   17.00000    9.00000  47.1%     -    0s
H    0     0                      16.0000000    9.00000  43.7%     -    0s
     0     0    9.00000    0  142   16.00000    9.00000  43.7%     -    0s
     0     0    9.09908    0  178   16.00000    9.09908  43.1%     -    0s
     0     0    9.13825    0  186   16.00000    9.13825  42.9%     -    0s
     0     0    9.13825    0  198   16.00000    9.13825  42.9%     -    0s
     0     0    9.13825    0  205   16.00000    9.13825  42.9%     -    0s
     0     0    9.35541    0  182   16.00000    9.35541  41.5%     -    0s
H    0     0                      15.0000000    9.36387  37.6%     -    0s
     0     0    9.36940    0  159   15.00000    9.36940  37.5%     -    0s
     0     0    9.36940    0  165   15.00000    9.36940  37.5%     -    0s
     0     0    9.56084    0  160   15.00000    9.56084  36.3%     -    0s
     0     0    9.56084    0  166   15.00000    9.56084  36.3%     -    0s
     0     0    9.57114    0  148   15.00000    9.57114  36.2%     -    0s
     0     0    9.57114    0  149   15.00000    9.57114  36.2%     -    0s
     0     0    9.58996    0  155   15.00000    9.58996  36.1%     -    0s
H    0     0                      14.0000000    9.61054  31.4%     -    0s
     0     0    9.61054    0  163   14.00000    9.61054  31.4%     -    0s
     0     0    9.61054    0  167   14.00000    9.61054  31.4%     -    0s
     0     0    9.61054    0  166   14.00000    9.61054  31.4%     -    0s
     0     0    9.61054    0  166   14.00000    9.61054  31.4%     -    0s
     0     0    9.61054    0  174   14.00000    9.61054  31.4%     -    0s
     0     0    9.61054    0  178   14.00000    9.61054  31.4%     -    0s
     0     0    9.61963    0  178   14.00000    9.61963  31.3%     -    0s
     0     0    9.62965    0  171   14.00000    9.62965  31.2%     -    0s
     0     0    9.65250    0  172   14.00000    9.65250  31.1%     -    0s
     0     0    9.65250    0  172   14.00000    9.65250  31.1%     -    0s
     0     0    9.65250    0  172   14.00000    9.65250  31.1%     -    0s
     0     0    9.65250    0  143   14.00000    9.65250  31.1%     -    0s
     0     2    9.66000    0  139   14.00000    9.66000  31.0%     -    0s
H  342   135                      13.0000000   10.05308  22.7%  49.3    1s
   937   368     cutoff   24        13.00000   10.66722  17.9%  62.9    5s
  2462   469   12.00000   20   59   13.00000   11.22111  13.7%  62.8   10s
  4313   334   12.00000   21   69   13.00000   11.64812  10.4%  65.9   15s

Cutting planes:
  Learned: 3
  Gomory: 2
  Cover: 43
  Implied bound: 29
  Projected implied bound: 7
  Clique: 7
  MIR: 59
  StrongCG: 3
  Flow cover: 66
  GUB cover: 21
  Inf proof: 3
  Zero half: 18
  RLT: 10
  Relax-and-lift: 18
  BQP: 8

Explored 4662 nodes (309236 simplex iterations) in 15.93 seconds (14.06 work units)
Thread count was 1 (of 16 available processors)

Solution count 10: 13 13 14 ... 36

Optimal solution found (tolerance 1.00e-04)
Best objective 1.300000000000e+01, best bound 1.200000000000e+01, gap 7.6923%

User-callback calls 16257, time in user-callback 0.01 sec
Stat(MathOptInterface.OPTIMAL, 13.0, 12.000000000000002, 0.07692307692307679, 0.042056, 15.925639867782593, 4662, Main.CFLG.LEVFP, "", #undef)
